100 1387
200 2544
300 3879
400 4967
500 6264
600 7780
700 8780
800 10358
900 11766
1000 12837
1100 13930
1200 15841
1300 17390
1400 18012
1500 19362
1600 20785
1700 21762
1800 23118
1900 24576
2000 25960
